Please solve the following SAT Problem encoded in DIMACS format, only return a single solution assignment without explanations, if there is any: 
p cnf 10 45
3 -7 -4 0
3 -4 8 0
5 -1 -7 0
-1 6 8 0
6 -10 2 0
8 5 -7 0
9 -10 -7 0
-5 9 -1 0
2 6 8 0
5 -8 3 0
8 6 9 0
-7 2 5 0
5 3 -1 0
-5 3 9 0
6 3 4 0
8 -4 1 0
9 -7 -1 0
-5 6 9 0
-4 6 9 0
1 3 8 0
-7 4 9 0
5 10 9 0
2 8 -9 0
-1 -7 -5 0
8 -7 -1 0
2 9 3 0
7 9 -10 0
9 2 -1 0
-10 -3 8 0
-1 2 -10 0
5 2 -4 0
-5 8 6 0
8 -1 -4 0
-7 6 5 0
6 -4 5 0
-10 6 9 0
6 -10 9 0
-5 9 8 0
-7 -4 -3 0
-7 8 -10 0
-10 -2 -7 0
2 5 -1 0
6 -7 3 0
7 -1 9 0
-4 7 5 0

